TYPE : Vertex Cover
DIMENSION: 33
EDGE_DATA_SECTION:
0 5
0 7
0 8
0 10
0 14
0 15
0 21
0 25
0 26
0 31
0 32
1 3
1 6
1 11
1 14
1 18
1 25
1 27
1 28
1 29
2 10
2 16
3 5
3 7
3 24
3 27
4 5
4 6
4 15
4 16
4 25
4 28
5 6
5 10
5 11
5 13
5 17
5 22
5 23
5 24
5 28
5 32
6 7
6 9
6 11
6 19
6 20
6 29
6 30
7 8
7 16
7 17
7 26
7 27
8 11
8 14
8 16
8 17
8 21
8 23
8 30
9 11
9 14
9 16
9 17
9 18
9 20
9 22
9 29
9 32
10 11
10 20
10 25
10 26
10 29
11 13
11 20
11 26
11 30
12 17
12 21
12 23
12 28
13 14
13 25
13 26
13 30
14 16
14 19
15 17
15 27
16 17
16 19
16 24
17 26
17 32
18 20
18 22
18 26
18 28
18 29
19 23
19 32
20 31
20 32
21 22
21 27
21 30
21 32
22 27
22 29
22 32
24 25
24 26
24 27
25 26
27 29
28 29
-1
VERTEX_DEGREE:
11.0 9.0 2.0 5.0 6.0 13.0 10.0 8.0 9.0 10.0 8.0 10.0 4.0 6.0 7.0 4.0 9.0 9.0 7.0 5.0 7.0 7.0 7.0 4.0 6.0 7.0 9.0 8.0 6.0 8.0 5.0 2.0 8.0
VERTEX_COVER:
3 5 6 7 8 9 10 11 13 14 15 16 17 18 21 23 25 26 27 28 29 31 32
EOF
